c n orig vars 50
p cnf 52 92
1 2 -51 0
3 4 -51 0
5 6 -51 0
7 8 -51 0
9 10 -51 0
11 12 -51 0
13 14 -51 0
15 16 -51 0
17 18 -51 0
19 20 -51 0
21 27 33 39 45 -52 0
22 28 34 40 46 -52 0
23 29 35 41 47 -52 0
24 30 36 42 48 -52 0
25 31 37 43 49 -52 0
26 32 38 44 50 -52 0
-21 -22 -52 0
-21 -23 -52 0
-21 -24 -52 0
-21 -25 -52 0
-21 -26 -52 0
-22 -23 -52 0
-22 -24 -52 0
-22 -25 -52 0
-22 -26 -52 0
-23 -24 -52 0
-23 -25 -52 0
-23 -26 -52 0
-24 -25 -52 0
-24 -26 -52 0
-25 -26 -52 0
-27 -28 -52 0
-27 -29 -52 0
-27 -30 -52 0
-27 -31 -52 0
-27 -32 -52 0
-28 -29 -52 0
-28 -30 -52 0
-28 -31 -52 0
-28 -32 -52 0
-29 -30 -52 0
-29 -31 -52 0
-29 -32 -52 0
-30 -31 -52 0
-30 -32 -52 0
-31 -32 -52 0
-33 -34 -52 0
-33 -35 -52 0
-33 -36 -52 0
-33 -37 -52 0
-33 -38 -52 0
-34 -35 -52 0
-34 -36 -52 0
-34 -37 -52 0
-34 -38 -52 0
-35 -36 -52 0
-35 -37 -52 0
-35 -38 -52 0
-36 -37 -52 0
-36 -38 -52 0
-37 -38 -52 0
-39 -40 -52 0
-39 -41 -52 0
-39 -42 -52 0
-39 -43 -52 0
-39 -44 -52 0
-40 -41 -52 0
-40 -42 -52 0
-40 -43 -52 0
-40 -44 -52 0
-41 -42 -52 0
-41 -43 -52 0
-41 -44 -52 0
-42 -43 -52 0
-42 -44 -52 0
-43 -44 -52 0
-45 -46 -52 0
-45 -47 -52 0
-45 -48 -52 0
-45 -49 -52 0
-45 -50 -52 0
-46 -47 -52 0
-46 -48 -52 0
-46 -49 -52 0
-46 -50 -52 0
-47 -48 -52 0
-47 -49 -52 0
-47 -50 -52 0
-48 -49 -52 0
-48 -50 -52 0
-49 -50 -52 0
51 52 0
